SCIP version 5.0.0 [precision: 8 byte] [memory: block] [mode: optimized] [LP solver: NONE] [GitHash: 3bbd232]
Copyright (C) 2002-2017 Konrad-Zuse-Zentrum fuer Informationstechnik Berlin (ZIB)

External codes: 
  Readline EditLine w  GNU library for command line editing (gnu.org/s/readline)
  CppAD 20160000.1     Algorithmic Differentiation of C++ algorithms developed by B. Bell (www.coin-or.org/CppAD)
  ZLIB 1.2.5           General purpose compression library by J. Gailly and M. Adler (zlib.net)
  GMP 6.1.2            GNU Multiple Precision Arithmetic Library developed by T. Granlund (gmplib.org)

user parameter file <scip.set> not found - using default parameters

read problem <../../Split_data/output/spectf/5/3_sample_spectf.logreg>
============

File name	:	../../Split_data/output/spectf/5/3_sample_spectf.logreg
Problem name 	:	3_sample_spectf
Number of data	:	214
Number of var	:	44
The given data has linear independence

[dim=1] time: 0.010054
[dim=2] time: 0.018996
[dim=3] time: 0.02693
[dim=4] time: 0.033609
[dim=5] time: 0.040379
[dim=6] time: 0.046706
[dim=7] time: 0.052613
[dim=8] time: 0.058299
[dim=9] time: 0.063997
[dim=10] time: 0.069997
[dim=11] time: 0.075837
[dim=12] Time of forward = 0.08159sec.
AIC: 129.351
k: 11

[dim=44] time: 0.02966
[dim=43] time: 0.0475
[dim=42] time: 0.064658
[dim=41] time: 0.083016
[dim=40] time: 0.100433
[dim=39] time: 0.113852
[dim=38] time: 0.132601
[dim=37] time: 0.149831
[dim=36] time: 0.164492
[dim=35] time: 0.183678
[dim=34] time: 0.204733
[dim=33] time: 0.217707
[dim=32] time: 0.228506
[dim=31] time: 0.237317
[dim=30] time: 0.246483
[dim=29] time: 0.254328
[dim=28] time: 0.264141
[dim=27] time: 0.278797
[dim=26] time: 0.288003
[dim=25] time: 0.295979
[dim=24] time: 0.304319
[dim=23] time: 0.312641
[dim=22] time: 0.318698
[dim=21] time: 0.324017
[dim=20] time: 0.331259
[dim=19] Time of backward = 0.337849sec.
AIC: 127.95
k: 20
